s td 436 8 466
b 1 2 49 451
b 2 45 276 414
b 3 59 65 115
b 4 68 100 281
b 5 87 149 182
b 6 90 170 282
b 7 102 231 257
b 8 125 229 301
b 9 159 357 418
b 10 128 163 254
b 11 173 369 436
b 12 180 227 358
b 13 196 245 285
b 14 203 379 396
b 15 213 293 311
b 16 93 101 239
b 17 86 240 352
b 18 145 242 294
b 19 128 227
b 20 227 358
b 21 4 98 265
b 22 267 432 457
b 23 22 177 268
b 24 170 287
b 25 151 287
b 26 293 326
b 27 162 342 382
b 28 130 358
b 29 286 338 378
b 30 306 385 425
b 31 297 339 390
b 32 278 314 391
b 33 393 414
b 34 69 209 429
b 35 82 402 430
b 36 236 288 431
b 37 135 329 437
b 38 21 451
b 39 21 82
b 40 82 402
b 41 188 402
b 42 188 403
b 43 313 403
b 44 4 98 465
b 45 10 73 172
b 46 12 70 247
b 47 15 299 375
b 48 299 375
b 49 16 260 452
b 50 22 146 177
b 51 23 236 238
b 52 29 207 228
b 53 30 110 142
b 54 36 92 364
b 55 38 312 465
b 56 41 55 298
b 57 34 46 53
b 58 59 115 274
b 59 62 149 434
b 60 37 69 209
b 61 70 136 247
b 62 73 150 172
b 63 77 136 181
b 64 78 181 207
b 65 71 84 444
b 66 20 86 352
b 67 89 212 377
b 68 174 212 377
b 69 8 91 133
b 70 92 98 364
b 71 93 101 169
b 72 98 364 465
b 73 103 284 350 420
b 74 34 105 303
b 75 107 283 438
b 76 110 142 404
b 77 113 295 445
b 78 115 274 363
b 79 116 364 445
b 80 120 149 257
b 81 48 122 292
b 82 123 237 250
b 83 129 137 313
b 84 99 132 198
b 85 8 133 230
b 86 135 329 435
b 87 329 380 435
b 88 137 295 313
b 89 138 304 344
b 90 142 264 404
b 91 147 279 382
b 92 149 257 434
b 93 150 172 230
b 94 151 320 355
b 95 153 169 417
b 96 28 155 348
b 97 104 160 356
b 98 117 161 341
b 99 56 162 382
b 100 174 212 343
b 101 176 274 305
b 102 146 177 340
b 103 179 223 277
b 104 136 181 207
b 105 28 187 189
b 106 190 204 409
b 107 32 192 284
b 108 199 348 397
b 109 48 200 234
b 110 204 320 409
b 111 72 206 379
b 112 136 207 228
b 113 37 209 443
b 114 211 248 262
b 115 108 212 343
b 116 215 304 315
b 117 8 166 220
b 118 229 301 446
b 119 8 172 230
b 120 231 257 313
b 121 5 48 234
b 122 236 238 288
b 123 238 288 299
b 124 375 404
b 125 121 243 298
b 126 245 285 338
b 127 246 396 404
b 128 257 313 434
b 129 260 304 452
b 130 264 404 444
b 131 269 323 409
b 132 112 223 277
b 133 19 278 314
b 134 119 279 382
b 135 33 280 371
b 136 146 285 338
b 137 286 338 421
b 138 48 283 292
b 139 145 262 294
b 140 127 296 361
b 141 258 297 339
b 142 127 274 305
b 143 165 306 425
b 144 139 312 465
b 145 295 313 434
b 146 19 75 314
b 147 304 315 386
b 148 44 326 443
b 149 143 330 368
b 150 146 338 421
b 151 258 271 339
b 152 258 271 346 446
b 153 271 301 346 446
b 154 271 301 446
b 155 141 271 301
b 156 141 317
b 157 171 317 323
b 158 185 284 350 420
b 159 185 284 360
b 160 32 284 360
b 161 104 356 460
b 162 357 418 433
b 163 71 274 363
b 164 364 445 465
b 165 369 423 436
b 166 33 57 371
b 167 5 26 374
b 168 72 379 396
b 169 380 435 456
b 170 121 435 456
b 171 121 298 456
b 172 56 119 382
b 173 5 304 386
b 174 166 393 406
b 175 72 396 404
b 176 191 348 397
b 177 35 237 398
b 178 156 259 401
b 179 72 404 444
b 180 119 218 407
b 181 320 323 409
b 182 289 405 413
b 183 169 172 417
b 184 114 418 433
b 185 165 424 425
b 186 88 432 457
b 187 71 295 434
b 188 300 423 436
b 189 283 344 438
b 190 71 72 444
b 191 295 445 465
b 192 57 216 449
b 193 72 304 452
b 194 298 456 466
b 195 88 423 457
b 196 51 427 462
b 197 139 295 465
b 198 1 47 168 232
b 199 8 166 172 318
b 200 166 172 318 406
b 201 5 172 318 406
b 202 5 95 318 406
b 203 13 58 100 140
b 204 58 100 140 455
b 205 100 140 281 455
b 206 97 281 455
b 207 97 441 455
b 208 272 441 455
b 209 39 272 426 441
b 210 20 221 307 352
b 211 24 126 263 366
b 212 25 35 320 355
b 213 35 250 320 355
b 214 3 56 178 232 273 332 443 459
b 215 42 56 114 178 232 273 443 459
b 216 42 56 114 232 273 443 458 459
b 217 42 56 57 114 136 232 273 458
b 218 33 42 56 57 114 136 273 458
b 219 33 42 56 114 136 273 307 458
b 220 33 42 114 136 221 273 307 458
b 221 42 114 136 221 273 307 440 458
b 222 40 42 114 136 221 307 440 458
b 223 40 42 114 126 136 221 440 458
b 224 40 42 114 126 136 221 244 458
b 225 40 114 126 136 221 244 272 458
b 226 114 134 244 272 458
b 227 114 134 272 302 458
b 228 134 272 302 441 458
b 229 134 272 302 426 441
b 230 7 134 302 426
b 231 302 384 441 458
b 232 14 114 134 302
b 233 40 126 136 221 244 272 424
b 234 40 126 136 221 272 421 424
b 235 50 136 221 272 421 424
b 236 50 136 172 221 419 421
b 237 136 139 172 221 419
b 238 139 172 221 354 361 419
b 239 75 139 221 354 361 419
b 240 19 75 354 361 419
b 241 75 79 139 361
b 242 139 172 283 354 361
b 243 139 172 283 304 361
b 244 48 172 283 304
b 245 127 139 304 361
b 246 283 304 344 361
b 247 50 80 172 419 421
b 248 50 80 169 172
b 249 50 80 169 210 310
b 250 50 101 169 210 310
b 251 101 210 310 450
b 252 50 80 210 370
b 253 50 80 331 370
b 254 80 169 210 310 362
b 255 80 210 362 411
b 256 169 310 362 412
b 257 80 146 419 421
b 258 50 272 383 424
b 259 165 272 383 424
b 260 40 126 263 421 424
b 261 126 263 366 424
b 262 263 421 422 424
b 263 40 42 61 126 440
b 264 40 221 307 352 440
b 265 33 136 221 247
b 266 33 56 76 273 307
b 267 33 56 76 307 428
b 268 76 106 307 428
b 269 56 76 273 307 319
b 270 56 76 148 319
b 271 18 57 136 232 460 466
b 272 9 18 74 232 252 255 460 466
b 273 9 18 74 232 252 255 327 466
b 274 9 74 232 252 255 327 367 466
b 275 9 74 232 249 255 327 367 466
b 276 9 74 232 249 327 367 427 466
b 277 9 198 232 249 327 367 427 466
b 278 9 198 232 327 367 368 427 466
b 279 9 198 232 251 327 368 427 466
b 280 9 198 232 251 327 351 368 427
b 281 9 168 198 232 251 351 368 427
b 282 9 168 198 232 341 351 368 427
b 283 9 47 168 198 232 341 351 427
b 284 9 47 164 168 198 341 351 427
b 285 9 47 81 164 198 341 351 427
b 286 9 47 81 99 164 198 341 427
b 287 9 47 81 99 164 341 427 461
b 288 9 47 81 99 124 164 427 461
b 289 9 47 81 124 164 289 427 461
b 290 47 81 124 144 164 289 461
b 291 47 124 144 152 164 289 461
b 292 47 124 144 152 201 289 461
b 293 47 124 144 152 201 259 289
b 294 47 52 144 152 201 259 416
b 295 47 52 144 152 201 233 416
b 296 11 47 52 152 233 416
b 297 11 47 52 152 360 416
b 298 11 31 52 360 416
b 299 31 32 52 360
b 300 31 52 158 416
b 301 11 47 152 360 394
b 302 47 152 194 394
b 303 11 152 233 308
b 304 144 152 197 201 233 416
b 305 197 201 365 416
b 306 52 201 259 399 416
b 307 52 156 259 399
b 308 201 259 321 399
b 309 124 201 259 289 448
b 310 124 144 201 256 461
b 311 144 152 164 447
b 312 81 144 164 208 461
b 313 9 124 289 427 454
b 314 85 124 289 454
b 315 9 270 289 427 454
b 316 9 187 270 289
b 317 66 99 124 461
b 318 81 99 117 341 461
b 319 60 81 164 351
b 320 81 341 351 359
b 321 168 251 351 376
b 322 143 251 327 351 368
b 323 143 251 262 327
b 324 143 248 262 327
b 325 94 198 249 367
b 326 186 198 249 427
b 327 9 74 249 275 427
b 328 74 249 255 410
b 329 252 255 266 327 367
b 330 18 43 252 327 466
b 331 18 43 241 466
b 332 9 18 74 225 252 255 460
b 333 9 18 27 225 252 255 460
b 334 9 18 27 225 252 343 460
b 335 9 17 27 225 343 460
b 336 9 17 225 439 460
b 337 9 17 104 439 460
b 338 17 104 219 439
b 339 17 108 343 460
b 340 17 27 195 225
b 341 18 27 214 252 343
b 342 27 214 224 343
b 343 18 214 343 415
b 344 27 225 252 255 463
b 345 74 205 225 255
b 346 18 57 136 228 460 466
b 347 18 57 228 388 466
b 348 18 228 303 388
b 349 63 228 303 388
b 350 57 298 388 466
b 351 57 298 328 388
b 352 57 216 298 328
b 353 114 433 443 458 459
b 354 96 291 433 458 459
b 355 96 291 395 433
b 356 96 336 395 433
b 357 96 291 423 458 459
b 358 42 111 114 178 443
b 359 42 111 178 442 443
b 360 37 111 178 442 443
b 361 42 111 178 408 442
b 362 111 184 408 442
b 363 178 235 408 442
b 364 3 56 232 273 324 332 443 459
b 365 3 56 232 323 324 332 443 459
b 366 56 119 232 323 324
b 367 119 232 250 323
b 368 35 232 250 323
b 369 35 232 237 250
b 370 35 250 320 323
b 371 119 218 323 324
b 372 3 222 323 324 332 443 459
b 373 222 323 324 332 381 443 459
b 374 44 222 323 381 443 459
b 375 44 323 349 381 459
b 376 44 349 373 459
b 377 44 261 349 373
b 378 112 222 324 332 381
b 379 83 112 222 324 332
b 380 83 112 223 324
b 381 83 112 222 400
b 382 273 324 332 372
b 383 3 154 178 273 332
b 384 3 154 178 325
b 385 3 154 332 389
b 386 5 26 95 406
b 387 34 53 303 464
b 388 53 63 303 464
b 389 51 270 427 454
b 390 53 63 228 303
b 391 54 76 106 428
b 392 55 57 216 298
b 393 42 64 126 290
b 394 42 126 290 387
b 395 67 310 362 412
b 396 71 72 274 295
b 397 72 127 274 295
b 398 72 127 139 295
b 399 72 127 139 304
b 400 88 96 423 458
b 401 5 48 172 304
b 402 109 130 175 333
b 403 130 175 316 333
b 404 9 104 118 439
b 405 130 316 333 349
b 406 131 165 272 383
b 407 143 145 248 262
b 408 6 37 157 183
b 409 6 37 183 442
b 410 6 37 111 442
b 411 167 291 300 459
b 412 291 300 423 459
b 413 171 323 349 381
b 414 9 191 347 348
b 415 114 193 217 453
b 416 19 202 354 419
b 417 298 328 353 388
b 418 114 134 217 453
b 419 14 114 134 453
b 420 253 302 384 458
b 421 80 309 331 370
b 422 101 310 322 450
b 423 316 333 335 349
b 424 316 335 349 392
b 425 316 349 373 392
b 426 261 349 373 392
b 427 316 335 337 392
b 428 334 336 395 433
b 429 80 146 340 345
b 430 80 146 345 419
b 431 9 226 347 348
b 432 9 28 226 348
b 433 9 28 187 226
b 434 9 187 226 270
b 435 42 61 126 387
b 436 259 289 405 448
1 38
2 33
3 58
4 205
5 92
6 24
7 120
8 118
9 162
10 19
11 165
12 20
13 126
14 168
15 26
16 71
17 66
18 139
19 20
20 28
21 44
22 186
23 50
24 25
25 94
26 148
27 99
28 405
29 137
30 143
31 141
32 133
33 174
34 60
35 40
36 122
37 86
38 39
39 40
40 41
41 42
42 43
43 145
44 72
45 62
46 61
47 123
47 124
47 48
49 129
50 102
51 122
52 112
53 76
54 70
55 144
56 392
57 387
58 78
59 92
60 113
61 265
62 93
63 104
64 104
65 190
66 210
67 68
68 100
69 85
70 72
71 250
72 164
73 158
74 387
75 189
76 90
77 191
78 163
79 164
80 92
81 138
82 369
83 88
84 286
85 119
86 87
87 169
88 145
89 246
90 130
91 134
92 128
93 119
94 213
95 183
96 432
97 161
98 318
99 172
100 115
101 142
102 429
103 132
104 112
105 433
106 110
107 160
108 176
109 121
110 181
111 168
112 346
113 360
114 324
115 339
116 147
117 199
118 154
119 199
120 128
121 401
122 123
124 179
125 171
126 136
127 175
128 145
129 193
130 179
131 181
132 380
133 146
134 172
135 166
136 150
137 150
138 244
139 407
140 245
141 151
142 397
143 185
144 197
145 187
146 240
147 173
148 374
149 322
150 257
151 152
152 153
153 154
154 155
155 156
156 157
157 413
158 159
159 160
160 299
161 337
162 184
163 396
164 191
165 188
166 218
167 386
168 175
169 170
170 171
171 194
172 366
173 401
174 200
175 179
176 414
177 369
178 307
179 190
180 371
181 370
182 436
183 248
184 353
185 259
186 195
187 396
188 412
189 246
190 396
191 197
192 352
193 399
194 350
195 400
196 389
197 398
198 283
199 200
200 201
201 401
201 202
202 386
203 204
204 205
205 206
206 207
207 208
208 228
209 229
210 264
211 261
212 213
213 370
214 215
214 364
214 383
215 216
215 358
216 217
216 353
217 218
217 271
218 219
219 220
219 266
220 221
220 265
221 222
222 223
222 264
223 224
223 263
224 225
225 226
225 233
226 227
227 228
227 232
228 229
228 231
229 230
231 420
232 419
233 234
234 235
234 260
235 236
235 258
236 237
236 247
237 238
238 239
238 242
239 240
239 241
240 416
242 243
243 244
243 245
243 246
244 401
245 399
247 248
247 257
248 249
249 250
249 252
249 254
250 251
251 422
252 253
253 421
254 255
254 256
256 395
257 430
258 259
259 406
260 261
260 262
263 435
266 267
266 269
267 268
268 391
269 270
271 272
271 346
272 273
272 332
273 274
273 330
274 275
274 329
275 276
275 328
276 277
276 327
277 278
277 325
277 326
278 279
279 280
280 281
280 322
281 282
281 321
282 283
283 284
284 285
285 286
285 319
285 320
286 287
287 288
287 318
288 289
288 317
289 290
289 313
290 291
290 312
291 292
291 311
292 293
292 310
293 294
293 309
294 295
294 306
295 296
295 304
296 297
296 303
297 298
297 301
298 299
298 300
301 302
304 305
306 307
306 308
309 436
313 314
313 315
315 389
315 316
316 434
322 323
323 324
324 407
330 331
332 333
332 345
333 334
333 344
334 335
334 341
335 336
335 339
335 340
336 337
337 404
337 338
341 342
341 343
346 347
347 348
347 350
348 349
349 390
350 351
351 417
351 352
352 392
353 354
354 355
354 357
355 356
356 428
357 400
357 412
358 359
359 360
359 361
360 410
361 362
361 363
364 365
364 382
365 366
365 372
366 367
366 371
367 368
368 369
368 370
372 373
373 374
373 378
374 375
375 413
375 376
376 377
377 426
378 379
379 380
379 381
383 384
383 385
387 388
388 390
393 394
394 435
396 397
397 398
398 399
402 403
403 405
405 423
408 409
409 410
411 412
414 431
415 418
418 419
423 424
424 427
424 425
425 426
429 430
431 432
432 433
433 434
